p cnf 188 613
c t mc
3 1 0
3 -2 0
-1 2 -3 0
4 5 -6 0
-4 -5 -6 0
4 -5 6 0
-4 5 6 0
-9 -7 0
-9 -8 0
7 8 9 0
10 6 0
10 9 0
-6 -9 -10 0
10 -11 -12 0
-10 11 -12 0
10 11 12 0
-10 -11 12 0
3 12 -13 0
-3 -12 -13 0
3 -12 13 0
-3 12 13 0
-15 14 0
-15 9 0
-14 -9 15 0
16 -6 0
16 15 0
6 -15 -16 0
-2 17 -18 0
2 -17 -18 0
-2 -17 18 0
2 17 18 0
-19 16 0
-19 -18 0
-16 18 19 0
-20 -13 0
-20 -19 0
13 19 20 0
-22 7 0
-22 -11 0
-7 11 22 0
11 10 -23 0
-11 -10 -23 0
11 -10 23 0
-11 10 23 0
22 23 -24 0
-22 -23 -24 0
22 -23 24 0
-22 23 24 0
-25 -24 0
-25 -18 0
24 18 25 0
26 21 0
26 25 0
-21 -25 -26 0
28 9 0
28 -27 0
-9 27 -28 0
29 28 0
29 28 0
-28 -29 0
-26 29 -30 0
26 -29 -30 0
-26 -29 30 0
26 29 30 0
31 5 -32 0
-31 -5 -32 0
31 -5 32 0
-31 5 32 0
33 -32 0
33 23 0
32 -23 -33 0
-34 -28 0
-34 -9 0
28 9 34 0
-35 -34 0
-35 -31 0
34 31 35 0
33 35 -36 0
-33 -35 -36 0
33 -35 36 0
-33 35 36 0
-38 -11 0
-38 37 0
11 -37 38 0
2 38 -39 0
-2 -38 -39 0
2 -38 39 0
-2 38 39 0
-41 -40 0
-41 -31 0
40 31 41 0
-39 -41 -42 0
39 41 -42 0
-39 41 42 0
39 -41 42 0
-36 -42 -43 0
36 42 -43 0
-36 42 43 0
36 -42 43 0
-44 -30 0
-44 43 0
30 -43 44 0
-20 -44 -45 0
20 44 -45 0
-20 44 45 0
20 -44 45 0
47 -46 0
47 14 0
46 -14 -47 0
48 6 0
48 -37 0
-6 37 -48 0
-49 47 0
-49 48 0
-47 -48 49 0
-49 -50 0
49 -50 0
2 10 -51 0
-2 -10 -51 0
2 -10 51 0
-2 10 51 0
-52 9 0
-52 5 0
-9 -5 52 0
53 52 0
53 37 0
-52 -37 -53 0
-4 53 -54 0
4 -53 -54 0
-4 -53 54 0
4 53 54 0
55 -54 0
55 5 0
54 -5 -55 0
51 -55 -56 0
-51 55 -56 0
51 55 56 0
-51 -55 56 0
-57 50 0
-57 -56 0
-50 56 57 0
58 -25 0
58 -53 0
25 53 -58 0
-6 -7 -59 0
6 7 -59 0
-6 7 59 0
6 -7 59 0
-60 58 0
-60 59 0
-58 -59 60 0
-61 -60 0
-61 22 0
60 -22 61 0
62 48 0
62 -9 0
-48 9 -62 0
63 -61 0
63 62 0
61 -62 -63 0
57 63 -64 0
-57 -63 -64 0
57 -63 64 0
-57 63 64 0
66 -14 0
66 -65 0
14 65 -66 0
-67 -66 0
-67 12 0
66 -12 67 0
-68 -8 0
-68 -3 0
8 3 68 0
69 -67 0
69 68 0
67 -68 -69 0
-27 -10 -70 0
27 10 -70 0
-27 10 70 0
27 -10 70 0
71 70 0
71 -68 0
-70 68 -71 0
72 -69 0
72 -71 0
69 71 -72 0
74 73 0
74 14 0
-73 -14 -74 0
-75 -1 0
-75 74 0
1 -74 75 0
-72 75 -76 0
72 -75 -76 0
-72 -75 76 0
72 75 76 0
77 -64 0
77 76 0
64 -76 -77 0
78 -45 0
78 -77 0
45 77 -78 0
-65 -31 -79 0
65 31 -79 0
-65 31 79 0
65 -31 79 0
-80 -79 0
-80 -31 0
79 31 80 0
82 -81 0
82 10 0
81 -10 -82 0
83 -1 0
83 -32 0
1 32 -83 0
-84 82 0
-84 83 0
-82 -83 84 0
-85 -8 0
-85 -84 0
8 84 85 0
86 80 0
86 85 0
-80 -85 -86 0
54 18 -87 0
-54 -18 -87 0
54 -18 87 0
-54 18 87 0
-88 86 0
-88 -87 0
-86 87 88 0
55 89 -90 0
-55 -89 -90 0
55 -89 90 0
-55 89 90 0
91 40 0
91 -4 0
-40 4 -91 0
92 -31 0
92 91 0
31 -91 -92 0
52 -92 -93 0
-52 92 -93 0
52 92 93 0
-52 -92 93 0
-94 -40 0
-94 -93 0
40 93 94 0
95 -90 0
95 -94 0
90 94 -95 0
88 -95 -96 0
-88 95 -96 0
88 95 96 0
-88 -95 96 0
-51 -73 -97 0
51 73 -97 0
-51 73 97 0
51 -73 97 0
67 97 -98 0
-67 -97 -98 0
67 -97 98 0
-67 97 98 0
7 -91 -99 0
-7 91 -99 0
7 91 99 0
-7 -91 99 0
100 98 0
100 -99 0
-98 99 -100 0
-101 32 0
-101 4 0
-32 -4 101 0
102 101 0
102 16 0
-101 -16 -102 0
103 53 0
103 -102 0
-53 102 -103 0
-104 6 0
-104 97 0
-6 -97 104 0
105 -82 0
105 -1 0
82 1 -105 0
-105 -37 -106 0
105 37 -106 0
-105 37 106 0
105 -37 106 0
107 104 0
107 -106 0
-104 106 -107 0
-17 -68 -108 0
17 68 -108 0
-17 68 108 0
17 -68 108 0
109 107 0
109 108 0
-107 -108 -109 0
-110 103 0
-110 -109 0
-103 109 110 0
-111 100 0
-111 110 0
-100 -110 111 0
-112 96 0
-112 -111 0
-96 111 112 0
-113 53 0
-113 8 0
-53 -8 113 0
113 -11 -114 0
-113 11 -114 0
113 11 114 0
-113 -11 114 0
-114 -29 -115 0
114 29 -115 0
-114 29 115 0
114 -29 115 0
-58 18 -116 0
58 -18 -116 0
-58 -18 116 0
58 18 116 0
-117 -17 0
-117 -59 0
17 59 117 0
-118 -113 0
-118 11 0
113 -11 118 0
117 118 -119 0
-117 -118 -119 0
117 -118 119 0
-117 118 119 0
120 -25 0
120 -119 0
25 119 -120 0
-121 116 0
-121 -120 0
-116 120 121 0
65 101 -122 0
-65 -101 -122 0
65 -101 122 0
-65 101 122 0
121 122 -123 0
-121 -122 -123 0
121 -122 123 0
-121 122 123 0
-124 91 0
-124 92 0
-91 -92 124 0
-15 -124 -125 0
15 124 -125 0
-15 124 125 0
15 -124 125 0
-126 -52 0
-126 12 0
52 -12 126 0
-125 126 -127 0
125 -126 -127 0
-125 -126 127 0
125 126 127 0
123 127 -128 0
-123 -127 -128 0
123 -127 128 0
-123 127 128 0
117 -11 -129 0
-117 11 -129 0
117 11 129 0
-117 -11 129 0
-130 25 0
-130 10 0
-25 -10 130 0
131 130 0
131 -117 0
-130 117 -131 0
-132 129 0
-132 -131 0
-129 131 132 0
-79 -8 -133 0
79 8 -133 0
-79 8 133 0
79 -8 133 0
-134 -133 0
-134 118 0
133 -118 134 0
-135 132 0
-135 134 0
-132 -134 135 0
-128 -135 -136 0
128 135 -136 0
-128 135 136 0
128 -135 136 0
115 -136 -137 0
-115 136 -137 0
115 136 137 0
-115 -136 137 0
-138 22 0
-138 40 0
-22 -40 138 0
139 138 0
139 -6 0
-138 6 -139 0
-141 38 0
-141 140 0
-38 -140 141 0
142 141 0
142 -85 0
-141 85 -142 0
-139 142 -143 0
139 -142 -143 0
-139 -142 143 0
139 142 143 0
-145 144 0
-145 -23 0
-144 23 145 0
146 143 0
146 -145 0
-143 145 -146 0
147 73 0
147 -6 0
-73 6 -147 0
85 117 -148 0
-85 -117 -148 0
85 -117 148 0
-85 117 148 0
-149 27 0
-149 80 0
-27 -80 149 0
-150 -148 0
-150 -149 0
148 149 150 0
-151 -9 0
-151 -27 0
9 27 151 0
81 151 -152 0
-81 -151 -152 0
81 -151 152 0
-81 151 152 0
153 152 0
153 -105 0
-152 105 -153 0
150 -153 -154 0
-150 153 -154 0
150 153 154 0
-150 -153 154 0
155 -147 0
155 154 0
147 -154 -155 0
-73 39 -156 0
73 -39 -156 0
-73 -39 156 0
73 39 156 0
-157 47 0
-157 29 0
-47 -29 157 0
-158 -133 0
-158 -82 0
133 82 158 0
-159 -157 0
-159 158 0
157 -158 159 0
156 159 -160 0
-156 -159 -160 0
156 -159 160 0
-156 159 160 0
161 -155 0
161 160 0
155 -160 -161 0
-162 -146 0
-162 161 0
146 -161 162 0
163 24 0
163 -25 0
-24 25 -163 0
-163 40 -164 0
163 -40 -164 0
-163 -40 164 0
163 40 164 0
-165 -11 0
-165 29 0
11 -29 165 0
-166 -163 0
-166 133 0
163 -133 166 0
-167 -165 0
-167 166 0
165 -166 167 0
-164 167 -168 0
164 -167 -168 0
-164 -167 168 0
164 167 168 0
-2 -113 -169 0
2 113 -169 0
-2 113 169 0
2 -113 169 0
-170 -168 0
-170 -169 0
168 169 170 0
-171 -162 0
-171 -170 0
162 170 171 0
172 137 0
172 -171 0
-137 171 -172 0
-173 112 0
-173 172 0
-112 -172 173 0
-174 78 0
-174 -173 0
-78 173 174 0
-25 -102 -175 0
25 102 -175 0
-25 102 175 0
25 -102 175 0
-176 84 0
-176 16 0
-84 -16 176 0
-177 113 0
-177 -176 0
-113 176 177 0
178 31 0
178 -65 0
-31 65 -178 0
-39 178 -179 0
39 -178 -179 0
-39 -178 179 0
39 178 179 0
-179 118 -180 0
179 -118 -180 0
-179 -118 180 0
179 118 180 0
18 91 -181 0
-18 -91 -181 0
18 -91 181 0
-18 91 181 0
-182 180 0
-182 -181 0
-180 181 182 0
-183 177 0
-183 -182 0
-177 182 183 0
-184 -175 0
-184 183 0
175 -183 184 0
-185 41 0
-185 -53 0
-41 53 185 0
-186 17 0
-186 -185 0
-17 185 186 0
187 -184 0
187 186 0
184 -186 -187 0
-188 -174 0
-188 -187 0
174 187 188 0
86 66 93 19 98 -91 0
169 5 176 -80 0
-137 -149 0
-104 170 65 -40 0
-14 179 -80 -11 -177 0
21 56 -3 71 76 -166 -39 44 0
-165 13 -180 142 76 35 -100 0
-137 -131 -60 76 0
37 -108 -88 0
-123 18 -172 142 0
-107 25 0
-77 -10 24 160 72 -22 170 88 -90 0
-181 -177 76 -13 185 143 -26 0
-173 144 -154 109 0
-34 -166 72 122 -124 -172 2 19 0
-161 -120 -152 0
6 -64 -16 -49 153 -139 177 -103 -182 -56 0
-42 -43 -150 0
58 -137 151 132 0
-163 108 -148 126 -170 0
82 172 14 23 -60 29 48 -171 -81 -145 0
100 68 150 117 -77 60 -43 -178 0
109 -35 187 186 47 -79 69 124 -66 -4 0
27 114 -135 -147 161 158 0
109 -29 48 93 46 145 -84 -28 157 0
7 -188 -65 -26 124 -137 0
-61 -112 81 -33 142 166 -106 127 97 -147 0
-46 -78 -26 -17 -19 39 96 -61 6 0
-38 122 133 66 164 -92 -88 -67 0
-117 159 -5 -43 -111 -58 -53 -121 0
135 157 -22 -53 -126 27 0
153 -21 -75 -138 -39 -29 -166 94 0
-149 172 -29 -51 65 90 0
-13 -68 0
6 65 -175 80 116 93 -41 75 -151 -113 0
-91 -78 -157 -114 65 -18 90 -178 7 0
17 -162 71 58 170 -2 90 150 0
56 -166 28 -139 136 -174 0
145 75 -8 -154 -160 120 104 0
-161 116 0
164 -41 -79 184 -68 -150 -185 -54 0
184 -47 -127 -139 -166 -81 -49 106 -16 0
153 -5 0
134 75 0
-66 39 98 -60 -145 142 8 -44 55 -45 0
86 98 -46 13 28 -20 145 -14 0
34 145 106 113 172 94 187 -174 73 0
26 -147 -122 70 0
-42 -9 154 -7 -22 170 -59 0
-11 113 167 121 -123 149 0
96 109 0
-185 114 174 -147 -98 19 153 0
94 122 -169 165 0
-44 37 -177 -171 0
-1 104 0
117 -121 47 -91 12 173 0
188 0
